NAME          
ROWS
 N  OBJ
 L  c1
COLUMNS
    MARKER    'MARKER'                 'INTORG'
    x[1]      c1        762
    x[1]      OBJ       -792
    x[2]      c1        184
    x[2]      OBJ       -370
    x[3]      c1        306
    x[3]      OBJ       -405
    x[4]      c1        367
    x[4]      OBJ       -412
    x[5]      c1        359
    x[5]      OBJ       -747
    x[6]      c1        777
    x[6]      OBJ       -42
    x[7]      c1        514
    x[7]      OBJ       -102
    x[8]      c1        314
    x[8]      OBJ       -555
    x[9]      c1        708
    x[9]      OBJ       -660
    x[10]     c1        789
    x[10]     OBJ       -880
RHS
    rhs       c1        2540
RANGES
BOUNDS
 BV bounds    x[1]
 BV bounds    x[2]
 BV bounds    x[3]
 BV bounds    x[4]
 BV bounds    x[5]
 BV bounds    x[6]
 BV bounds    x[7]
 BV bounds    x[8]
 BV bounds    x[9]
 BV bounds    x[10]
ENDATA
